letting np_cars_plus be 74
letting np_classes be 94
letting np_options be 10
letting quantity_range_min be 1
letting quantity_range_delta be 196
letting maxcars_range_min be 4
letting maxcars_range_delta be 1
letting blksize_delta_range_min be 5
letting blksize_delta_range_delta be 0
letting usage_card_min be 339
letting usage_card_delta be 2